SECTION Graph
Nodes 85
Edges 84

E 1 73 301
E 1 104 192
E 2 104 199
E 3 59 295
E 4 33 288
E 5 18 295
E 5 32 294
E 5 52 293
E 5 58 299
E 6 7 299
E 6 42 285
E 6 51 302
E 7 43 301
E 7 55 296
E 8 18 293
E 8 21 298
E 9 38 302
E 9 90 188
E 10 70 297
E 11 35 298
E 11 44 303
E 11 71 301
E 12 64 297
E 12 74 297
E 12 277 198
E 13 20 301
E 13 45 296
E 14 277 191
E 15 31 290
E 16 20 300
E 17 66 301
E 17 76 298
E 18 42 299
E 18 57 297
E 18 64 296
E 19 33 292
E 21 37 302
E 22 76 299
E 23 33 297
E 23 34 296
E 23 38 296
E 24 151 189
E 25 33 301
E 26 49 301
E 26 58 299
E 27 31 303
E 27 45 303
E 28 58 291
E 29 75 301
E 30 53 302
E 31 67 301
E 33 61 299
E 34 65 298
E 35 46 305
E 35 48 295
E 36 80 302
E 39 48 290
E 39 59 302
E 40 44 300
E 40 67 298
E 41 74 292
E 42 79 299
E 44 55 291
E 44 62 296
E 45 78 296
E 47 70 290
E 49 200 194
E 50 200 195
E 53 69 300
E 53 74 296
E 54 90 193
E 56 80 299
E 57 77 295
E 58 76 291
E 60 74 308
E 62 80 297
E 63 74 293
E 64 73 294
E 65 76 299
E 67 70 297
E 68 75 294
E 72 151 195
E 72 200 190
E 73 75 295
END
SECTION Terminals
T 1
T 2
T 3
T 4
T 5
T 6
T 7
T 8
T 9
T 10
T 11
T 12
T 13
T 14
T 15
T 16
T 17
T 18
T 19
T 20
T 21
T 22
T 23
T 24
T 25
T 26
T 27
T 28
T 29
T 30
T 31
T 32
T 33
T 34
T 35
T 36
T 37
T 38
T 39
T 40
T 41
T 42
T 43
T 44
T 45
T 46
T 47
T 48
T 49
T 50
T 51
T 52
T 53
T 54
T 55
T 56
T 57
T 58
T 59
T 60
T 61
T 62
T 63
T 64
T 65
T 66
T 67
T 68
T 69
T 70
T 71
T 72
T 73
T 74
T 75
T 76
T 77
T 78
T 79
T 80
END
SECTION Cost
23831
END
